JulietBench/Juliet_Based_Patch_Bench/linux/CWE-189-Numeric-Errors/CVE_2010_4165_7a1abd08d52fdeddb3e9a5a33f2f15cc6a5674d2/Resultdo_tcp_setsockopt_Snippet_patch2NEQ.smt2
; benchmark generated from python API
(set-info :status unknown)
(declare-fun R () (_ BitVec 32))
(declare-fun rdi () (_ BitVec 64))
(assert
 (let (($x166 (and (distinct (_ bv64 32) R) true)))
 (let (($x47 (= (_ bv4294967274 32) R)))
 (let ((?x6 ((_ extract 31 0) rdi)))
 (let (($x11 (bvsge (_ bv7 32) ?x6)))
 (let (($x44 (and $x11 $x47)))
 (let (($x49 (= R ?x6)))
 (let (($x41 (bvslt (_ bv7 32) ?x6)))
 (let (($x45 (bvule ?x6 (_ bv32767 32))))
 (let (($x43 (and $x45 $x41 $x49)))
 (let (($x156 (bvugt ?x6 (_ bv32767 32))))
 (let (($x48 (and $x156 $x41 $x47)))
 (let (($x158 (or $x48 $x43 $x44)))
 (let (($x164 (not $x158)))
 (let (($x167 (and $x164 $x166)))
 (let (($x163 (= (_ bv64 32) R)))
 (let (($x157 (and $x158 $x163)))
 (let (($x168 (or $x157 $x167)))
 (not $x168)))))))))))))))))))
(check-sat)
